results/res_prop_muc/res_Cimatti_mathsat_cores/QF_UF/PEQ019_size7.smt.smt2.out

real	1m17.981s
user	1m16.649s
sys	0m1.279s
