results/res_prop_muc/res_Cimatti_mathsat_cores/QF_UF/PEQ019_size7.smt.smt2.res
unsat
( _c0
  _c1
  _c10
  _c100
  _c1000
  _c1001
  _c1002
  _c1003
  _c1004
  _c1005
  _c1006
  _c1007
  _c1008
  _c1009
  _c101
  _c1010
  _c1011
  _c1012
  _c1013
  _c1014
  _c1015
  _c1016
  _c1017
  _c1018
  _c1019
  _c102
  _c1020
  _c1021
  _c1022
  _c1023
  _c1024
  _c1025
  _c1026
  _c1027
  _c1028
  _c1029
  _c103
  _c1030
  _c1031
  _c1032
  _c1033
  _c1034
  _c1035
  _c1036
  _c1037
  _c1038
  _c1039
  _c104
  _c1040
  _c1041
  _c1042
  _c1043
  _c1044
  _c1045
  _c105
  _c106
  _c107
  _c108
  _c109
  _c11
  _c110
  _c111
  _c112
  _c113
  _c114
  _c116
  _c117
  _c118
  _c119
  _c12
  _c120
  _c121
  _c122
  _c123
  _c124
  _c125
  _c126
  _c127
  _c128
  _c129
  _c13
  _c130
  _c131
  _c132
  _c133
  _c134
  _c136
  _c137
  _c138
  _c139
  _c14
  _c140
  _c141
  _c148
  _c149
  _c150
  _c151
  _c153
  _c154
  _c155
  _c156
  _c157
  _c158
  _c159
  _c161
  _c162
  _c163
  _c164
  _c165
  _c166
  _c167
  _c169
  _c170
  _c171
  _c172
  _c173
  _c174
  _c175
  _c176
  _c177
  _c178
  _c179
  _c180
  _c181
  _c182
  _c2
  _c200
  _c201
  _c202
  _c203
  _c204
  _c205
  _c206
  _c207
  _c208
  _c209
  _c210
  _c211
  _c212
  _c213
  _c214
  _c215
  _c216
  _c217
  _c218
  _c219
  _c220
  _c221
  _c222
  _c223
  _c224
  _c239
  _c240
  _c241
  _c246
  _c247
  _c248
  _c249
  _c250
  _c251
  _c253
  _c254
  _c255
  _c256
  _c257
  _c258
  _c259
  _c260
  _c261
  _c262
  _c263
  _c264
  _c265
  _c266
  _c295
  _c296
  _c297
  _c298
  _c299
  _c3
  _c300
  _c301
  _c302
  _c303
  _c304
  _c305
  _c306
  _c307
  _c308
  _c309
  _c310
  _c311
  _c312
  _c313
  _c314
  _c315
  _c316
  _c317
  _c318
  _c319
  _c320
  _c321
  _c322
  _c323
  _c324
  _c325
  _c326
  _c327
  _c328
  _c329
  _c330
  _c331
  _c332
  _c333
  _c334
  _c335
  _c336
  _c337
  _c338
  _c339
  _c340
  _c341
  _c342
  _c343
  _c344
  _c345
  _c346
  _c347
  _c348
  _c349
  _c350
  _c351
  _c352
  _c353
  _c354
  _c355
  _c356
  _c357
  _c358
  _c359
  _c360
  _c361
  _c362
  _c363
  _c364
  _c365
  _c366
  _c367
  _c368
  _c369
  _c370
  _c371
  _c372
  _c373
  _c374
  _c375
  _c376
  _c377
  _c378
  _c379
  _c380
  _c381
  _c382
  _c383
  _c384
  _c385
  _c386
  _c387
  _c388
  _c389
  _c390
  _c391
  _c392
  _c393
  _c394
  _c395
  _c396
  _c397
  _c398
  _c399
  _c4
  _c400
  _c401
  _c402
  _c403
  _c404
  _c405
  _c406
  _c407
  _c408
  _c409
  _c410
  _c411
  _c412
  _c413
  _c414
  _c415
  _c416
  _c417
  _c418
  _c419
  _c420
  _c421
  _c422
  _c423
  _c424
  _c425
  _c426
  _c427
  _c428
  _c429
  _c430
  _c431
  _c432
  _c433
  _c434
  _c435
  _c436
  _c437
  _c438
  _c439
  _c440
  _c441
  _c442
  _c443
  _c444
  _c445
  _c446
  _c447
  _c448
  _c449
  _c450
  _c451
  _c452
  _c453
  _c454
  _c455
  _c456
  _c457
  _c458
  _c459
  _c460
  _c461
  _c462
  _c463
  _c464
  _c465
  _c466
  _c467
  _c468
  _c469
  _c470
  _c471
  _c472
  _c473
  _c474
  _c475
  _c476
  _c477
  _c478
  _c479
  _c480
  _c481
  _c482
  _c483
  _c484
  _c485
  _c486
  _c487
  _c488
  _c489
  _c490
  _c491
  _c492
  _c493
  _c494
  _c495
  _c496
  _c497
  _c498
  _c499
  _c5
  _c50
  _c500
  _c501
  _c502
  _c503
  _c504
  _c505
  _c506
  _c507
  _c508
  _c509
  _c51
  _c510
  _c511
  _c512
  _c513
  _c514
  _c515
  _c516
  _c517
  _c518
  _c519
  _c52
  _c520
  _c521
  _c522
  _c523
  _c524
  _c525
  _c526
  _c527
  _c528
  _c529
  _c53
  _c530
  _c531
  _c532
  _c533
  _c534
  _c535
  _c536
  _c537
  _c538
  _c539
  _c54
  _c540
  _c541
  _c542
  _c543
  _c544
  _c545
  _c546
  _c547
  _c548
  _c549
  _c55
  _c550
  _c551
  _c552
  _c553
  _c554
  _c555
  _c556
  _c557
  _c558
  _c559
  _c56
  _c560
  _c561
  _c562
  _c563
  _c564
  _c565
  _c566
  _c567
  _c568
  _c569
  _c570
  _c571
  _c572
  _c573
  _c574
  _c575
  _c576
  _c577
  _c578
  _c579
  _c580
  _c581
  _c582
  _c583
  _c584
  _c585
  _c586
  _c587
  _c588
  _c589
  _c590
  _c591
  _c592
  _c593
  _c594
  _c595
  _c596
  _c597
  _c598
  _c599
  _c6
  _c600
  _c601
  _c602
  _c603
  _c604
  _c605
  _c606
  _c607
  _c608
  _c609
  _c610
  _c611
  _c612
  _c613
  _c614
  _c615
  _c616
  _c617
  _c618
  _c619
  _c620
  _c621
  _c622
  _c623
  _c624
  _c625
  _c626
  _c627
  _c628
  _c629
  _c630
  _c631
  _c632
  _c633
  _c634
  _c635
  _c636
  _c637
  _c638
  _c639
  _c640
  _c641
  _c642
  _c643
  _c644
  _c645
  _c646
  _c647
  _c648
  _c649
  _c650
  _c651
  _c652
  _c653
  _c654
  _c655
  _c656
  _c657
  _c658
  _c659
  _c660
  _c661
  _c662
  _c663
  _c664
  _c665
  _c666
  _c667
  _c668
  _c669
  _c670
  _c671
  _c672
  _c673
  _c674
  _c675
  _c676
  _c677
  _c678
  _c679
  _c680
  _c688
  _c689
  _c692
  _c693
  _c694
  _c695
  _c696
  _c697
  _c698
  _c699
  _c7
  _c700
  _c701
  _c702
  _c703
  _c704
  _c705
  _c706
  _c707
  _c708
  _c709
  _c710
  _c711
  _c712
  _c713
  _c715
  _c716
  _c717
  _c718
  _c720
  _c721
  _c722
  _c723
  _c724
  _c725
  _c726
  _c727
  _c728
  _c729
  _c730
  _c731
  _c732
  _c733
  _c734
  _c735
  _c736
  _c737
  _c738
  _c739
  _c741
  _c742
  _c743
  _c744
  _c745
  _c746
  _c747
  _c748
  _c749
  _c750
  _c751
  _c752
  _c753
  _c754
  _c755
  _c756
  _c757
  _c758
  _c759
  _c760
  _c761
  _c762
  _c763
  _c764
  _c786
  _c787
  _c789
  _c790
  _c791
  _c792
  _c793
  _c794
  _c795
  _c796
  _c797
  _c798
  _c799
  _c8
  _c800
  _c801
  _c803
  _c804
  _c805
  _c806
  _c821
  _c822
  _c823
  _c824
  _c825
  _c826
  _c827
  _c828
  _c829
  _c830
  _c832
  _c833
  _c834
  _c835
  _c836
  _c837
  _c838
  _c839
  _c840
  _c841
  _c842
  _c843
  _c844
  _c846
  _c847
  _c848
  _c884
  _c885
  _c886
  _c887
  _c889
  _c890
  _c9
  _c919
  _c920
  _c922
  _c924
  _c925
  _c926
  _c927
  _c928
  _c929
  _c930
  _c931
  _c932
  _c975
  _c976
  _c977
  _c978
  _c979
  _c980
  _c981
  _c982
  _c983
  _c984
  _c985
  _c986
  _c987
  _c988
  _c989
  _c990
  _c991
  _c992
  _c993
  _c994
  _c995
  _c996
  _c997
  _c998
  _c999 )
